1 6
2 11
3 2
4 20
5 20
6 8
7 12
8 7
9 12
10 12
11 22
12 9
13 22
14 10
15 15
16 16
17 4
18 19
19 7
20 17
21 22
22 13
23 19
24 10
25 10
26 15
27 10
28 7
29 1
30 1
31 1
32 2
33 1
34 1
35 21
36 2
37 1
38 1
39 12
40 5
41 8
42 6
43 5
44 8
45 16
46 2
47 7
48 8
49 11
50 19
51 8
52 19
53 17
54 18
55 19
56 16
57 16
58 4
59 4
60 3
61 19
62 21
63 18
64 22
65 20
66 2
67 9
68 18
69 20
70 5
71 3
72 4
73 2
74 1
75 21
76 11
77 20
78 8
79 6
80 6
81 6
82 15
83 10
84 9
85 11
86 9
87 16
88 9
89 1
90 9
91 14
92 8
93 2
94 13
95 4
96 3
97 3
98 17
99 3
100 23
101 10
102 22
103 14
104 14
105 13
106 6
107 15
108 18
109 19
110 19
111 19
112 23
113 23
114 23
115 3
116 13
117 15
118 23
119 14
120 11
121 11
122 12
123 15
124 1
125 11
126 5
127 9
128 13
129 6
130 22
131 22
132 22
133 22
134 7
135 7
136 20
137 7
138 20
139 16
140 8
141 10
142 4
143 15
144 5
145 15
146 11
147 19
148 19
149 19
150 19
151 7
152 17
153 16
154 16
155 17
156 17
157 16
158 13
159 9
160 13
161 21
162 18
163 2
164 13
165 10
166 9
167 14
168 14
169 20
170 10
171 18
172 12
173 8
174 11
175 14
176 13
177 15
178 3
179 6
180 2
181 18
